/*********************************************
 * OPL 12.10.0.0 Data
 * Author: Kinast
 * Creation date: Aug 17, 2021 at 11:48:06 AM
 *********************************************/

 nOrders = 50;
 nTasks = 600;

 nWorkgroups = 10;
 nWorkstations = 50;

 nCobots = 0;
 cobotTimeFactor = 0.7;

 workstations = {
 	< 0, "Workstation 0", 0, 0.79, 0.89, 1, 1 >,
 	< 1, "Workstation 1", 1, 1.13, 1.07, 1, 2 >,
 	< 2, "Workstation 2", 2, 1.09, 1.14, 1, 1 >,
 	< 3, "Workstation 3", 1, 0.89, 1.17, 1, 1 >,
 	< 4, "Workstation 4", 3, 1.11, 0.9, 1, 3 >,
 	< 5, "Workstation 5", 4, 0.8, 0.92, 1, 1 >,
 	< 6, "Workstation 6", 5, 0.87, 0.96, 1, 1 >,
 	< 7, "Workstation 7", 2, 1.2, 1.21, 1, 2 >,
 	< 8, "Workstation 8", 0, 0.87, 1.13, 1, 4 >,
 	< 9, "Workstation 9", 3, 1.14, 0.98, 1, 1 >,
 	< 10, "Workstation 10", 6, 0.85, 1.22, 1, 1 >,
 	< 11, "Workstation 11", 7, 0.85, 1.02, 1, 1 >,
 	< 12, "Workstation 12", 4, 1.06, 1.18, 1, 5 >,
 	< 13, "Workstation 13", 5, 1.17, 0.81, 1, 1 >,
 	< 14, "Workstation 14", 3, 0.92, 1.22, 1, 1 >,
 	< 15, "Workstation 15", 1, 0.87, 0.89, 1, 1 >,
 	< 16, "Workstation 16", 2, 0.77, 1.12, 1, 4 >,
 	< 17, "Workstation 17", 8, 0.8, 0.97, 1, 1 >,
 	< 18, "Workstation 18", 9, 0.76, 1.04, 1, 2 >,
 	< 19, "Workstation 19", 4, 0.95, 1.05, 1, 1 >,
 	< 20, "Workstation 20", 5, 0.8, 0.98, 1, 4 >,
 	< 21, "Workstation 21", 6, 0.8, 0.82, 1, 5 >,
 	< 22, "Workstation 22", 4, 0.91, 1.06, 1, 4 >,
 	< 23, "Workstation 23", 7, 1.07, 0.78, 1, 1 >,
 	< 24, "Workstation 24", 6, 1.23, 0.92, 1, 2 >,
 	< 25, "Workstation 25", 9, 0.81, 1, 1, 1 >,
 	< 26, "Workstation 26", 1, 1.19, 1.21, 1, 1 >,
 	< 27, "Workstation 27", 7, 1.22, 0.98, 1, 3 >,
 	< 28, "Workstation 28", 0, 0.85, 1.17, 1, 1 >,
 	< 29, "Workstation 29", 8, 1.13, 0.92, 1, 4 >,
 	< 30, "Workstation 30", 0, 1.11, 0.87, 1, 1 >,
 	< 31, "Workstation 31", 7, 1.17, 0.81, 1, 1 >,
 	< 32, "Workstation 32", 6, 0.95, 0.85, 1, 1 >,
 	< 33, "Workstation 33", 7, 0.8, 0.76, 1, 3 >,
 	< 34, "Workstation 34", 9, 1.09, 0.95, 1, 1 >,
 	< 35, "Workstation 35", 8, 1.19, 0.96, 1, 1 >,
 	< 36, "Workstation 36", 8, 1.02, 0.79, 1, 1 >,
 	< 37, "Workstation 37", 5, 1, 0.81, 1, 1 >,
 	< 38, "Workstation 38", 1, 1.11, 0.91, 1, 2 >,
 	< 39, "Workstation 39", 9, 0.93, 1, 1, 1 >,
 	< 40, "Workstation 40", 8, 1.23, 0.89, 1, 5 >,
 	< 41, "Workstation 41", 3, 1.08, 0.79, 1, 4 >,
 	< 42, "Workstation 42", 9, 1.19, 1, 1, 2 >,
 	< 43, "Workstation 43", 6, 0.93, 0.96, 1, 1 >,
 	< 44, "Workstation 44", 0, 1.1, 0.83, 1, 5 >,
 	< 45, "Workstation 45", 3, 1.23, 1.17, 1, 1 >,
 	< 46, "Workstation 46", 4, 1.05, 0.75, 1, 5 >,
 	< 47, "Workstation 47", 2, 1.15, 1.09, 1, 3 >,
 	< 48, "Workstation 48", 2, 1, 1.24, 1, 1 >,
 	< 49, "Workstation 49", 5, 0.75, 0.86, 1, 3 >
 };

 tasks = {
 	// order 0
 	< 0, 0, 5, 0, 30, 166, 4, -1 >,
 	< 1, 0, 6, 0, 0, 172, 2, 0 >,
 	< 2, 0, 3, 0, 0, 150, 0, 1 >,
 	< 3, 0, 10, 98, 0, 186, 8, 2 >,
 	< 4, 0, 2, 0, 30, 189, 7, 3 >,
 	< 5, 0, 3, 0, 0, 127, 5, 4 >,
 	< 6, 0, 3, 65, 94, 186, 3, 5 >,
 	< 7, 0, 3, 84, 38, 200, 1, 6 >,
 	< 8, 0, 9, 0, 54, 140, 9, 7 >,
 	< 9, 0, 4, 58, 37, 181, 6, 8 >,
 	< 10, 0, 10, 0, 0, 146, 4, 9 >,
 	< 11, 0, 4, 0, 52, 167, 2, 10 >,
 	// order 1
 	< 12, 1, 3, 0, 42, 122, 0, -1 >,
 	< 13, 1, 4, 0, 0, 122, 8, 12 >,
 	< 14, 1, 10, 56, 0, 186, 7, 13 >,
 	< 15, 1, 4, 0, 0, 166, 5, 14 >,
 	< 16, 1, 5, 68, 0, 156, 3, 15 >,
 	< 17, 1, 2, 0, 67, 179, 1, 16 >,
 	< 18, 1, 4, 68, 0, 127, 9, 17 >,
 	< 19, 1, 5, 74, 0, 150, 6, 18 >,
 	< 20, 1, 2, 0, 0, 160, 4, 19 >,
 	< 21, 1, 2, 47, 0, 190, 2, 20 >,
 	< 22, 1, 5, 36, 0, 176, 0, 21 >,
 	< 23, 1, 2, 0, 0, 119, 8, 22 >,
 	// order 2
 	< 24, 2, 7, 30, 91, 149, 7, -1 >,
 	< 25, 2, 9, 0, 0, 168, 5, 24 >,
 	< 26, 2, 1, 35, 100, 172, 3, 25 >,
 	< 27, 2, 6, 0, 97, 184, 1, 26 >,
 	< 28, 2, 9, 82, 35, 198, 9, 27 >,
 	< 29, 2, 3, 85, 0, 178, 6, 28 >,
 	< 30, 2, 4, 98, 64, 145, 4, 29 >,
 	< 31, 2, 2, 86, 48, 157, 2, 30 >,
 	< 32, 2, 4, 0, 0, 112, 0, 31 >,
 	< 33, 2, 2, 0, 0, 164, 8, 32 >,
 	< 34, 2, 8, 0, 0, 182, 7, 33 >,
 	< 35, 2, 6, 0, 0, 180, 5, 34 >,
 	// order 3
 	< 36, 3, 6, 64, 74, 132, 3, -1 >,
 	< 37, 3, 3, 0, 41, 122, 1, 36 >,
 	< 38, 3, 1, 0, 0, 114, 9, 37 >,
 	< 39, 3, 10, 56, 0, 136, 6, 38 >,
 	< 40, 3, 8, 43, 0, 157, 4, 39 >,
 	< 41, 3, 5, 42, 0, 114, 2, 40 >,
 	< 42, 3, 3, 0, 0, 134, 0, 41 >,
 	< 43, 3, 2, 0, 0, 158, 8, 42 >,
 	< 44, 3, 10, 0, 0, 188, 7, 43 >,
 	< 45, 3, 5, 42, 0, 129, 5, 44 >,
 	< 46, 3, 7, 0, 0, 122, 3, 45 >,
 	< 47, 3, 3, 77, 0, 166, 1, 46 >,
 	// order 4
 	< 48, 4, 4, 0, 0, 120, 9, -1 >,
 	< 49, 4, 4, 0, 0, 158, 6, 48 >,
 	< 50, 4, 10, 0, 100, 199, 4, 49 >,
 	< 51, 4, 9, 31, 0, 140, 2, 50 >,
 	< 52, 4, 4, 62, 0, 121, 0, 51 >,
 	< 53, 4, 5, 0, 0, 114, 8, 52 >,
 	< 54, 4, 9, 33, 0, 176, 7, 53 >,
 	< 55, 4, 3, 0, 52, 148, 5, 54 >,
 	< 56, 4, 8, 97, 88, 103, 3, 55 >,
 	< 57, 4, 2, 0, 0, 170, 1, 56 >,
 	< 58, 4, 2, 44, 62, 134, 9, 57 >,
 	< 59, 4, 3, 0, 0, 188, 6, 58 >,
 	// order 5
 	< 60, 5, 7, 0, 0, 195, 4, -1 >,
 	< 61, 5, 5, 91, 94, 175, 2, 60 >,
 	< 62, 5, 6, 44, 79, 173, 0, 61 >,
 	< 63, 5, 4, 0, 45, 103, 8, 62 >,
 	< 64, 5, 10, 73, 96, 172, 7, 63 >,
 	< 65, 5, 3, 60, 48, 192, 5, 64 >,
 	< 66, 5, 5, 77, 30, 115, 3, 65 >,
 	< 67, 5, 2, 0, 70, 155, 1, 66 >,
 	< 68, 5, 2, 0, 77, 108, 9, 67 >,
 	< 69, 5, 8, 33, 90, 185, 6, 68 >,
 	< 70, 5, 8, 0, 0, 198, 4, 69 >,
 	< 71, 5, 6, 72, 64, 177, 2, 70 >,
 	// order 6
 	< 72, 6, 3, 84, 31, 106, 0, -1 >,
 	< 73, 6, 4, 0, 0, 103, 8, 72 >,
 	< 74, 6, 6, 0, 0, 144, 7, 73 >,
 	< 75, 6, 7, 0, 0, 118, 5, 74 >,
 	< 76, 6, 2, 0, 78, 106, 3, 75 >,
 	< 77, 6, 6, 0, 0, 124, 1, 76 >,
 	< 78, 6, 1, 46, 85, 108, 9, 77 >,
 	< 79, 6, 8, 52, 96, 105, 6, 78 >,
 	< 80, 6, 7, 100, 0, 182, 4, 79 >,
 	< 81, 6, 4, 0, 99, 128, 2, 80 >,
 	< 82, 6, 3, 58, 31, 184, 0, 81 >,
 	< 83, 6, 6, 42, 73, 182, 8, 82 >,
 	// order 7
 	< 84, 7, 4, 0, 0, 145, 7, -1 >,
 	< 85, 7, 8, 0, 0, 154, 5, 84 >,
 	< 86, 7, 4, 0, 0, 113, 3, 85 >,
 	< 87, 7, 6, 97, 47, 125, 1, 86 >,
 	< 88, 7, 9, 0, 0, 175, 9, 87 >,
 	< 89, 7, 4, 0, 0, 122, 6, 88 >,
 	< 90, 7, 1, 51, 0, 173, 4, 89 >,
 	< 91, 7, 4, 0, 46, 156, 2, 90 >,
 	< 92, 7, 9, 0, 99, 148, 0, 91 >,
 	< 93, 7, 5, 94, 49, 105, 8, 92 >,
 	< 94, 7, 2, 31, 95, 182, 7, 93 >,
 	< 95, 7, 2, 72, 0, 188, 5, 94 >,
 	// order 8
 	< 96, 8, 3, 0, 0, 154, 3, -1 >,
 	< 97, 8, 3, 74, 79, 166, 1, 96 >,
 	< 98, 8, 7, 0, 91, 164, 9, 97 >,
 	< 99, 8, 9, 89, 63, 160, 6, 98 >,
 	< 100, 8, 10, 0, 34, 129, 4, 99 >,
 	< 101, 8, 8, 65, 0, 130, 2, 100 >,
 	< 102, 8, 7, 100, 0, 112, 0, 101 >,
 	< 103, 8, 8, 44, 49, 196, 8, 102 >,
 	< 104, 8, 6, 0, 0, 150, 7, 103 >,
 	< 105, 8, 4, 50, 44, 172, 5, 104 >,
 	< 106, 8, 8, 49, 0, 133, 3, 105 >,
 	< 107, 8, 4, 0, 44, 183, 1, 106 >,
 	// order 9
 	< 108, 9, 4, 0, 0, 101, 9, -1 >,
 	< 109, 9, 9, 84, 36, 101, 6, 108 >,
 	< 110, 9, 7, 43, 53, 177, 4, 109 >,
 	< 111, 9, 5, 99, 67, 151, 2, 110 >,
 	< 112, 9, 1, 90, 80, 175, 0, 111 >,
 	< 113, 9, 8, 0, 0, 125, 8, 112 >,
 	< 114, 9, 8, 0, 41, 103, 7, 113 >,
 	< 115, 9, 5, 73, 0, 177, 5, 114 >,
 	< 116, 9, 10, 0, 0, 193, 3, 115 >,
 	< 117, 9, 4, 32, 91, 190, 1, 116 >,
 	< 118, 9, 10, 0, 0, 179, 9, 117 >,
 	< 119, 9, 4, 41, 100, 101, 6, 118 >,
 	// order 10
 	< 120, 10, 8, 68, 0, 109, 4, -1 >,
 	< 121, 10, 8, 41, 98, 197, 2, 120 >,
 	< 122, 10, 4, 83, 92, 149, 0, 121 >,
 	< 123, 10, 10, 35, 45, 156, 8, 122 >,
 	< 124, 10, 6, 0, 41, 187, 7, 123 >,
 	< 125, 10, 9, 0, 0, 165, 5, 124 >,
 	< 126, 10, 7, 0, 0, 124, 3, 125 >,
 	< 127, 10, 7, 89, 77, 187, 1, 126 >,
 	< 128, 10, 9, 96, 52, 154, 9, 127 >,
 	< 129, 10, 2, 0, 0, 123, 6, 128 >,
 	< 130, 10, 5, 50, 37, 196, 4, 129 >,
 	< 131, 10, 2, 71, 0, 134, 2, 130 >,
 	// order 11
 	< 132, 11, 5, 51, 95, 171, 0, -1 >,
 	< 133, 11, 4, 0, 36, 189, 8, 132 >,
 	< 134, 11, 5, 56, 76, 167, 7, 133 >,
 	< 135, 11, 3, 78, 0, 198, 5, 134 >,
 	< 136, 11, 1, 0, 80, 154, 3, 135 >,
 	< 137, 11, 2, 72, 0, 106, 1, 136 >,
 	< 138, 11, 6, 56, 0, 163, 9, 137 >,
 	< 139, 11, 9, 0, 87, 123, 6, 138 >,
 	< 140, 11, 5, 0, 65, 144, 4, 139 >,
 	< 141, 11, 2, 0, 0, 144, 2, 140 >,
 	< 142, 11, 4, 60, 65, 156, 0, 141 >,
 	< 143, 11, 1, 0, 0, 117, 8, 142 >,
 	// order 12
 	< 144, 12, 3, 43, 87, 186, 7, -1 >,
 	< 145, 12, 4, 0, 0, 102, 5, 144 >,
 	< 146, 12, 9, 85, 38, 148, 3, 145 >,
 	< 147, 12, 10, 44, 0, 142, 1, 146 >,
 	< 148, 12, 8, 0, 0, 191, 9, 147 >,
 	< 149, 12, 1, 0, 92, 169, 6, 148 >,
 	< 150, 12, 6, 42, 71, 170, 4, 149 >,
 	< 151, 12, 3, 0, 75, 111, 2, 150 >,
 	< 152, 12, 2, 0, 0, 164, 0, 151 >,
 	< 153, 12, 6, 0, 92, 101, 8, 152 >,
 	< 154, 12, 7, 0, 96, 175, 7, 153 >,
 	< 155, 12, 6, 0, 0, 193, 5, 154 >,
 	// order 13
 	< 156, 13, 8, 86, 0, 173, 3, -1 >,
 	< 157, 13, 5, 75, 0, 128, 1, 156 >,
 	< 158, 13, 5, 0, 97, 156, 9, 157 >,
 	< 159, 13, 2, 0, 36, 152, 6, 158 >,
 	< 160, 13, 4, 69, 91, 107, 4, 159 >,
 	< 161, 13, 2, 47, 34, 154, 2, 160 >,
 	< 162, 13, 3, 0, 0, 191, 0, 161 >,
 	< 163, 13, 4, 50, 75, 189, 8, 162 >,
 	< 164, 13, 1, 0, 0, 184, 7, 163 >,
 	< 165, 13, 10, 0, 0, 177, 5, 164 >,
 	< 166, 13, 5, 34, 69, 181, 3, 165 >,
 	< 167, 13, 2, 0, 0, 166, 1, 166 >,
 	// order 14
 	< 168, 14, 4, 0, 0, 120, 9, -1 >,
 	< 169, 14, 3, 95, 0, 194, 6, 168 >,
 	< 170, 14, 7, 51, 0, 128, 4, 169 >,
 	< 171, 14, 9, 0, 50, 120, 2, 170 >,
 	< 172, 14, 1, 0, 79, 147, 0, 171 >,
 	< 173, 14, 5, 0, 0, 173, 8, 172 >,
 	< 174, 14, 9, 0, 43, 173, 7, 173 >,
 	< 175, 14, 7, 0, 64, 187, 5, 174 >,
 	< 176, 14, 1, 94, 67, 164, 3, 175 >,
 	< 177, 14, 10, 0, 0, 178, 1, 176 >,
 	< 178, 14, 7, 0, 93, 193, 9, 177 >,
 	< 179, 14, 3, 75, 0, 194, 6, 178 >,
 	// order 15
 	< 180, 15, 8, 58, 0, 144, 4, -1 >,
 	< 181, 15, 8, 76, 83, 181, 2, 180 >,
 	< 182, 15, 3, 99, 0, 163, 0, 181 >,
 	< 183, 15, 2, 0, 0, 106, 8, 182 >,
 	< 184, 15, 6, 0, 79, 107, 7, 183 >,
 	< 185, 15, 8, 0, 48, 149, 5, 184 >,
 	< 186, 15, 1, 53, 38, 107, 3, 185 >,
 	< 187, 15, 2, 48, 81, 127, 1, 186 >,
 	< 188, 15, 6, 98, 0, 108, 9, 187 >,
 	< 189, 15, 10, 50, 0, 113, 6, 188 >,
 	< 190, 15, 5, 0, 0, 142, 4, 189 >,
 	< 191, 15, 2, 39, 63, 107, 2, 190 >,
 	// order 16
 	< 192, 16, 4, 0, 99, 190, 0, -1 >,
 	< 193, 16, 5, 40, 0, 140, 8, 192 >,
 	< 194, 16, 2, 0, 0, 127, 7, 193 >,
 	< 195, 16, 8, 0, 75, 166, 5, 194 >,
 	< 196, 16, 3, 0, 56, 196, 3, 195 >,
 	< 197, 16, 4, 0, 0, 171, 1, 196 >,
 	< 198, 16, 9, 0, 69, 132, 9, 197 >,
 	< 199, 16, 7, 63, 0, 199, 6, 198 >,
 	< 200, 16, 6, 39, 88, 172, 4, 199 >,
 	< 201, 16, 10, 0, 38, 165, 2, 200 >,
 	< 202, 16, 1, 64, 0, 122, 0, 201 >,
 	< 203, 16, 9, 0, 80, 164, 8, 202 >,
 	// order 17
 	< 204, 17, 8, 0, 0, 127, 7, -1 >,
 	< 205, 17, 1, 72, 0, 169, 5, 204 >,
 	< 206, 17, 4, 0, 0, 174, 3, 205 >,
 	< 207, 17, 2, 0, 0, 168, 1, 206 >,
 	< 208, 17, 2, 98, 0, 119, 9, 207 >,
 	< 209, 17, 1, 0, 62, 110, 6, 208 >,
 	< 210, 17, 6, 0, 63, 177, 4, 209 >,
 	< 211, 17, 4, 0, 54, 199, 2, 210 >,
 	< 212, 17, 3, 93, 0, 107, 0, 211 >,
 	< 213, 17, 3, 55, 0, 125, 8, 212 >,
 	< 214, 17, 4, 0, 0, 122, 7, 213 >,
 	< 215, 17, 3, 0, 59, 161, 5, 214 >,
 	// order 18
 	< 216, 18, 3, 0, 0, 155, 3, -1 >,
 	< 217, 18, 8, 0, 96, 191, 1, 216 >,
 	< 218, 18, 6, 57, 0, 169, 9, 217 >,
 	< 219, 18, 2, 0, 0, 176, 6, 218 >,
 	< 220, 18, 6, 0, 51, 169, 4, 219 >,
 	< 221, 18, 8, 0, 65, 100, 2, 220 >,
 	< 222, 18, 6, 0, 70, 194, 0, 221 >,
 	< 223, 18, 2, 0, 83, 127, 8, 222 >,
 	< 224, 18, 2, 0, 0, 128, 7, 223 >,
 	< 225, 18, 9, 45, 100, 133, 5, 224 >,
 	< 226, 18, 10, 96, 0, 115, 3, 225 >,
 	< 227, 18, 3, 98, 0, 170, 1, 226 >,
 	// order 19
 	< 228, 19, 4, 71, 57, 170, 9, -1 >,
 	< 229, 19, 9, 0, 0, 125, 6, 228 >,
 	< 230, 19, 7, 0, 33, 158, 4, 229 >,
 	< 231, 19, 3, 0, 63, 184, 2, 230 >,
 	< 232, 19, 6, 0, 41, 105, 0, 231 >,
 	< 233, 19, 8, 0, 0, 141, 8, 232 >,
 	< 234, 19, 7, 0, 0, 146, 7, 233 >,
 	< 235, 19, 1, 43, 44, 189, 5, 234 >,
 	< 236, 19, 2, 0, 0, 142, 3, 235 >,
 	< 237, 19, 8, 78, 0, 189, 1, 236 >,
 	< 238, 19, 8, 47, 64, 157, 9, 237 >,
 	< 239, 19, 2, 47, 0, 188, 6, 238 >,
 	// order 20
 	< 240, 20, 7, 0, 0, 181, 4, -1 >,
 	< 241, 20, 8, 64, 75, 111, 2, 240 >,
 	< 242, 20, 4, 87, 54, 181, 0, 241 >,
 	< 243, 20, 6, 30, 0, 137, 8, 242 >,
 	< 244, 20, 7, 0, 67, 143, 7, 243 >,
 	< 245, 20, 6, 93, 96, 195, 5, 244 >,
 	< 246, 20, 3, 0, 0, 171, 3, 245 >,
 	< 247, 20, 7, 0, 99, 124, 1, 246 >,
 	< 248, 20, 9, 0, 53, 131, 9, 247 >,
 	< 249, 20, 5, 0, 0, 177, 6, 248 >,
 	< 250, 20, 6, 0, 0, 199, 4, 249 >,
 	< 251, 20, 6, 32, 49, 134, 2, 250 >,
 	// order 21
 	< 252, 21, 2, 94, 42, 144, 0, -1 >,
 	< 253, 21, 3, 0, 75, 115, 8, 252 >,
 	< 254, 21, 4, 0, 0, 119, 7, 253 >,
 	< 255, 21, 5, 0, 56, 122, 5, 254 >,
 	< 256, 21, 1, 0, 0, 111, 3, 255 >,
 	< 257, 21, 4, 79, 0, 182, 1, 256 >,
 	< 258, 21, 3, 98, 52, 180, 9, 257 >,
 	< 259, 21, 4, 82, 93, 104, 6, 258 >,
 	< 260, 21, 10, 65, 45, 182, 4, 259 >,
 	< 261, 21, 3, 31, 59, 131, 2, 260 >,
 	< 262, 21, 1, 0, 55, 179, 0, 261 >,
 	< 263, 21, 4, 0, 98, 167, 8, 262 >,
 	// order 22
 	< 264, 22, 3, 42, 0, 196, 7, -1 >,
 	< 265, 22, 3, 66, 0, 101, 5, 264 >,
 	< 266, 22, 5, 0, 0, 192, 3, 265 >,
 	< 267, 22, 10, 0, 0, 103, 1, 266 >,
 	< 268, 22, 5, 86, 47, 166, 9, 267 >,
 	< 269, 22, 9, 34, 0, 118, 6, 268 >,
 	< 270, 22, 4, 0, 0, 108, 4, 269 >,
 	< 271, 22, 3, 0, 61, 180, 2, 270 >,
 	< 272, 22, 9, 99, 47, 140, 0, 271 >,
 	< 273, 22, 9, 50, 56, 129, 8, 272 >,
 	< 274, 22, 3, 0, 0, 143, 7, 273 >,
 	< 275, 22, 9, 81, 68, 199, 5, 274 >,
 	// order 23
 	< 276, 23, 2, 53, 0, 174, 3, -1 >,
 	< 277, 23, 4, 0, 75, 146, 1, 276 >,
 	< 278, 23, 1, 0, 0, 149, 9, 277 >,
 	< 279, 23, 6, 0, 0, 185, 6, 278 >,
 	< 280, 23, 9, 0, 48, 166, 4, 279 >,
 	< 281, 23, 9, 0, 93, 165, 2, 280 >,
 	< 282, 23, 5, 87, 47, 188, 0, 281 >,
 	< 283, 23, 9, 0, 0, 114, 8, 282 >,
 	< 284, 23, 7, 84, 41, 192, 7, 283 >,
 	< 285, 23, 3, 38, 92, 158, 5, 284 >,
 	< 286, 23, 5, 80, 51, 191, 3, 285 >,
 	< 287, 23, 2, 0, 83, 142, 1, 286 >,
 	// order 24
 	< 288, 24, 5, 0, 0, 166, 9, -1 >,
 	< 289, 24, 2, 0, 0, 166, 6, 288 >,
 	< 290, 24, 4, 0, 0, 118, 4, 289 >,
 	< 291, 24, 4, 0, 0, 109, 2, 290 >,
 	< 292, 24, 8, 50, 39, 177, 0, 291 >,
 	< 293, 24, 9, 0, 44, 173, 8, 292 >,
 	< 294, 24, 6, 35, 44, 192, 7, 293 >,
 	< 295, 24, 1, 0, 0, 107, 5, 294 >,
 	< 296, 24, 3, 0, 88, 110, 3, 295 >,
 	< 297, 24, 6, 0, 0, 170, 1, 296 >,
 	< 298, 24, 5, 0, 0, 181, 9, 297 >,
 	< 299, 24, 4, 76, 51, 169, 6, 298 >,
 	// order 25
 	< 300, 25, 6, 82, 55, 171, 4, -1 >,
 	< 301, 25, 8, 0, 0, 197, 2, 300 >,
 	< 302, 25, 3, 0, 31, 102, 0, 301 >,
 	< 303, 25, 5, 66, 0, 102, 8, 302 >,
 	< 304, 25, 3, 0, 45, 181, 7, 303 >,
 	< 305, 25, 5, 0, 0, 170, 5, 304 >,
 	< 306, 25, 10, 32, 74, 164, 3, 305 >,
 	< 307, 25, 2, 39, 0, 111, 1, 306 >,
 	< 308, 25, 4, 0, 0, 127, 9, 307 >,
 	< 309, 25, 5, 0, 0, 111, 6, 308 >,
 	< 310, 25, 8, 44, 0, 183, 4, 309 >,
 	< 311, 25, 3, 0, 0, 100, 2, 310 >,
 	// order 26
 	< 312, 26, 6, 0, 47, 163, 0, -1 >,
 	< 313, 26, 6, 0, 0, 123, 8, 312 >,
 	< 314, 26, 5, 0, 0, 188, 7, 313 >,
 	< 315, 26, 10, 0, 0, 194, 5, 314 >,
 	< 316, 26, 7, 49, 85, 162, 3, 315 >,
 	< 317, 26, 2, 0, 0, 181, 1, 316 >,
 	< 318, 26, 8, 0, 0, 151, 9, 317 >,
 	< 319, 26, 2, 0, 0, 101, 6, 318 >,
 	< 320, 26, 10, 91, 77, 170, 4, 319 >,
 	< 321, 26, 9, 0, 30, 174, 2, 320 >,
 	< 322, 26, 10, 85, 0, 189, 0, 321 >,
 	< 323, 26, 7, 0, 55, 173, 8, 322 >,
 	// order 27
 	< 324, 27, 6, 94, 0, 177, 7, -1 >,
 	< 325, 27, 7, 0, 0, 192, 5, 324 >,
 	< 326, 27, 2, 82, 61, 158, 3, 325 >,
 	< 327, 27, 1, 52, 86, 158, 1, 326 >,
 	< 328, 27, 9, 0, 60, 188, 9, 327 >,
 	< 329, 27, 10, 0, 0, 190, 6, 328 >,
 	< 330, 27, 8, 85, 0, 147, 4, 329 >,
 	< 331, 27, 8, 61, 32, 185, 2, 330 >,
 	< 332, 27, 2, 91, 41, 199, 0, 331 >,
 	< 333, 27, 4, 0, 79, 114, 8, 332 >,
 	< 334, 27, 3, 40, 74, 129, 7, 333 >,
 	< 335, 27, 9, 78, 78, 101, 5, 334 >,
 	// order 28
 	< 336, 28, 5, 0, 76, 198, 3, -1 >,
 	< 337, 28, 9, 0, 0, 141, 1, 336 >,
 	< 338, 28, 6, 57, 0, 126, 9, 337 >,
 	< 339, 28, 8, 0, 75, 189, 6, 338 >,
 	< 340, 28, 6, 0, 53, 121, 4, 339 >,
 	< 341, 28, 2, 39, 71, 100, 2, 340 >,
 	< 342, 28, 4, 0, 88, 147, 0, 341 >,
 	< 343, 28, 7, 0, 0, 136, 8, 342 >,
 	< 344, 28, 7, 46, 83, 162, 7, 343 >,
 	< 345, 28, 8, 55, 72, 101, 5, 344 >,
 	< 346, 28, 1, 42, 87, 192, 3, 345 >,
 	< 347, 28, 8, 40, 61, 189, 1, 346 >,
 	// order 29
 	< 348, 29, 5, 0, 92, 121, 9, -1 >,
 	< 349, 29, 8, 0, 0, 155, 6, 348 >,
 	< 350, 29, 3, 0, 98, 186, 4, 349 >,
 	< 351, 29, 6, 57, 0, 178, 2, 350 >,
 	< 352, 29, 2, 100, 0, 145, 0, 351 >,
 	< 353, 29, 4, 76, 61, 182, 8, 352 >,
 	< 354, 29, 3, 48, 0, 133, 7, 353 >,
 	< 355, 29, 6, 92, 0, 156, 5, 354 >,
 	< 356, 29, 5, 62, 66, 137, 3, 355 >,
 	< 357, 29, 9, 53, 0, 113, 1, 356 >,
 	< 358, 29, 10, 52, 59, 189, 9, 357 >,
 	< 359, 29, 3, 45, 0, 143, 6, 358 >,
 	// order 30
 	< 360, 30, 7, 35, 0, 154, 4, -1 >,
 	< 361, 30, 7, 31, 66, 179, 2, 360 >,
 	< 362, 30, 3, 63, 68, 193, 0, 361 >,
 	< 363, 30, 10, 0, 56, 127, 8, 362 >,
 	< 364, 30, 7, 0, 0, 195, 7, 363 >,
 	< 365, 30, 5, 77, 52, 119, 5, 364 >,
 	< 366, 30, 5, 92, 78, 126, 3, 365 >,
 	< 367, 30, 9, 0, 0, 131, 1, 366 >,
 	< 368, 30, 5, 41, 72, 143, 9, 367 >,
 	< 369, 30, 9, 0, 0, 159, 6, 368 >,
 	< 370, 30, 1, 0, 0, 136, 4, 369 >,
 	< 371, 30, 1, 43, 41, 161, 2, 370 >,
 	// order 31
 	< 372, 31, 4, 0, 0, 159, 0, -1 >,
 	< 373, 31, 9, 71, 90, 167, 8, 372 >,
 	< 374, 31, 2, 48, 0, 183, 7, 373 >,
 	< 375, 31, 1, 0, 0, 134, 5, 374 >,
 	< 376, 31, 1, 0, 0, 123, 3, 375 >,
 	< 377, 31, 8, 0, 94, 152, 1, 376 >,
 	< 378, 31, 7, 34, 0, 108, 9, 377 >,
 	< 379, 31, 9, 53, 0, 158, 6, 378 >,
 	< 380, 31, 9, 90, 0, 150, 4, 379 >,
 	< 381, 31, 7, 0, 0, 119, 2, 380 >,
 	< 382, 31, 10, 100, 87, 125, 0, 381 >,
 	< 383, 31, 2, 32, 62, 148, 8, 382 >,
 	// order 32
 	< 384, 32, 9, 34, 0, 199, 7, -1 >,
 	< 385, 32, 7, 86, 0, 110, 5, 384 >,
 	< 386, 32, 5, 66, 0, 149, 3, 385 >,
 	< 387, 32, 2, 88, 50, 192, 1, 386 >,
 	< 388, 32, 8, 100, 38, 125, 9, 387 >,
 	< 389, 32, 10, 48, 61, 198, 6, 388 >,
 	< 390, 32, 1, 0, 0, 179, 4, 389 >,
 	< 391, 32, 10, 36, 58, 176, 2, 390 >,
 	< 392, 32, 9, 0, 0, 122, 0, 391 >,
 	< 393, 32, 4, 99, 44, 135, 8, 392 >,
 	< 394, 32, 2, 36, 34, 149, 7, 393 >,
 	< 395, 32, 9, 0, 91, 117, 5, 394 >,
 	// order 33
 	< 396, 33, 2, 0, 59, 146, 3, -1 >,
 	< 397, 33, 5, 0, 0, 131, 1, 396 >,
 	< 398, 33, 5, 67, 0, 102, 9, 397 >,
 	< 399, 33, 10, 0, 96, 122, 6, 398 >,
 	< 400, 33, 10, 80, 0, 181, 4, 399 >,
 	< 401, 33, 6, 37, 60, 165, 2, 400 >,
 	< 402, 33, 8, 67, 80, 198, 0, 401 >,
 	< 403, 33, 8, 90, 0, 160, 8, 402 >,
 	< 404, 33, 6, 94, 0, 103, 7, 403 >,
 	< 405, 33, 1, 37, 0, 197, 5, 404 >,
 	< 406, 33, 5, 95, 0, 146, 3, 405 >,
 	< 407, 33, 10, 91, 56, 166, 1, 406 >,
 	// order 34
 	< 408, 34, 7, 79, 0, 200, 9, -1 >,
 	< 409, 34, 5, 0, 71, 108, 6, 408 >,
 	< 410, 34, 1, 54, 0, 182, 4, 409 >,
 	< 411, 34, 2, 0, 91, 120, 2, 410 >,
 	< 412, 34, 7, 0, 54, 194, 0, 411 >,
 	< 413, 34, 7, 0, 0, 100, 8, 412 >,
 	< 414, 34, 9, 53, 97, 190, 7, 413 >,
 	< 415, 34, 3, 0, 0, 104, 5, 414 >,
 	< 416, 34, 7, 39, 92, 131, 3, 415 >,
 	< 417, 34, 8, 54, 85, 148, 1, 416 >,
 	< 418, 34, 4, 41, 0, 141, 9, 417 >,
 	< 419, 34, 10, 0, 0, 138, 6, 418 >,
 	// order 35
 	< 420, 35, 4, 0, 80, 114, 4, -1 >,
 	< 421, 35, 8, 0, 0, 125, 2, 420 >,
 	< 422, 35, 6, 32, 0, 119, 0, 421 >,
 	< 423, 35, 7, 0, 87, 103, 8, 422 >,
 	< 424, 35, 2, 0, 72, 121, 7, 423 >,
 	< 425, 35, 4, 78, 93, 148, 5, 424 >,
 	< 426, 35, 3, 41, 55, 151, 3, 425 >,
 	< 427, 35, 2, 81, 82, 116, 1, 426 >,
 	< 428, 35, 1, 0, 61, 191, 9, 427 >,
 	< 429, 35, 5, 70, 41, 132, 6, 428 >,
 	< 430, 35, 1, 0, 63, 176, 4, 429 >,
 	< 431, 35, 4, 35, 0, 151, 2, 430 >,
 	// order 36
 	< 432, 36, 8, 0, 0, 188, 0, -1 >,
 	< 433, 36, 8, 37, 0, 168, 8, 432 >,
 	< 434, 36, 1, 0, 0, 189, 7, 433 >,
 	< 435, 36, 7, 58, 77, 121, 5, 434 >,
 	< 436, 36, 3, 0, 38, 153, 3, 435 >,
 	< 437, 36, 2, 0, 33, 140, 1, 436 >,
 	< 438, 36, 6, 0, 0, 146, 9, 437 >,
 	< 439, 36, 7, 0, 78, 157, 6, 438 >,
 	< 440, 36, 2, 60, 0, 114, 4, 439 >,
 	< 441, 36, 1, 70, 0, 190, 2, 440 >,
 	< 442, 36, 10, 0, 0, 192, 0, 441 >,
 	< 443, 36, 9, 0, 0, 111, 8, 442 >,
 	// order 37
 	< 444, 37, 2, 80, 0, 102, 7, -1 >,
 	< 445, 37, 1, 37, 100, 198, 5, 444 >,
 	< 446, 37, 3, 0, 81, 135, 3, 445 >,
 	< 447, 37, 6, 85, 0, 152, 1, 446 >,
 	< 448, 37, 1, 71, 94, 109, 9, 447 >,
 	< 449, 37, 1, 0, 0, 163, 6, 448 >,
 	< 450, 37, 4, 0, 0, 159, 4, 449 >,
 	< 451, 37, 1, 75, 55, 134, 2, 450 >,
 	< 452, 37, 1, 0, 71, 122, 0, 451 >,
 	< 453, 37, 6, 0, 33, 136, 8, 452 >,
 	< 454, 37, 3, 0, 0, 160, 7, 453 >,
 	< 455, 37, 2, 38, 37, 198, 5, 454 >,
 	// order 38
 	< 456, 38, 9, 80, 0, 159, 3, -1 >,
 	< 457, 38, 8, 0, 0, 163, 1, 456 >,
 	< 458, 38, 5, 98, 0, 173, 9, 457 >,
 	< 459, 38, 5, 88, 0, 166, 6, 458 >,
 	< 460, 38, 4, 60, 0, 187, 4, 459 >,
 	< 461, 38, 4, 0, 0, 162, 2, 460 >,
 	< 462, 38, 5, 0, 34, 150, 0, 461 >,
 	< 463, 38, 4, 0, 0, 142, 8, 462 >,
 	< 464, 38, 5, 62, 0, 104, 7, 463 >,
 	< 465, 38, 10, 62, 0, 188, 5, 464 >,
 	< 466, 38, 4, 0, 0, 108, 3, 465 >,
 	< 467, 38, 2, 83, 0, 143, 1, 466 >,
 	// order 39
 	< 468, 39, 9, 30, 0, 141, 9, -1 >,
 	< 469, 39, 6, 62, 89, 147, 6, 468 >,
 	< 470, 39, 1, 0, 0, 150, 4, 469 >,
 	< 471, 39, 4, 0, 0, 194, 2, 470 >,
 	< 472, 39, 9, 0, 59, 104, 0, 471 >,
 	< 473, 39, 3, 65, 0, 109, 8, 472 >,
 	< 474, 39, 7, 0, 51, 105, 7, 473 >,
 	< 475, 39, 3, 64, 32, 191, 5, 474 >,
 	< 476, 39, 4, 85, 89, 187, 3, 475 >,
 	< 477, 39, 2, 81, 38, 171, 1, 476 >,
 	< 478, 39, 9, 0, 0, 128, 9, 477 >,
 	< 479, 39, 5, 49, 0, 100, 6, 478 >,
 	// order 40
 	< 480, 40, 5, 0, 0, 171, 4, -1 >,
 	< 481, 40, 8, 43, 0, 191, 2, 480 >,
 	< 482, 40, 9, 0, 0, 103, 0, 481 >,
 	< 483, 40, 6, 84, 44, 135, 8, 482 >,
 	< 484, 40, 9, 65, 0, 149, 7, 483 >,
 	< 485, 40, 5, 34, 0, 197, 5, 484 >,
 	< 486, 40, 2, 46, 94, 185, 3, 485 >,
 	< 487, 40, 2, 94, 0, 115, 1, 486 >,
 	< 488, 40, 10, 88, 73, 154, 9, 487 >,
 	< 489, 40, 8, 37, 74, 176, 6, 488 >,
 	< 490, 40, 10, 45, 30, 167, 4, 489 >,
 	< 491, 40, 3, 75, 0, 118, 2, 490 >,
 	// order 41
 	< 492, 41, 8, 0, 0, 159, 0, -1 >,
 	< 493, 41, 2, 80, 0, 189, 8, 492 >,
 	< 494, 41, 1, 0, 46, 168, 7, 493 >,
 	< 495, 41, 5, 92, 0, 133, 5, 494 >,
 	< 496, 41, 10, 0, 83, 131, 3, 495 >,
 	< 497, 41, 10, 90, 0, 196, 1, 496 >,
 	< 498, 41, 7, 0, 88, 138, 9, 497 >,
 	< 499, 41, 1, 55, 76, 106, 6, 498 >,
 	< 500, 41, 4, 0, 76, 172, 4, 499 >,
 	< 501, 41, 9, 52, 86, 140, 2, 500 >,
 	< 502, 41, 7, 0, 0, 173, 0, 501 >,
 	< 503, 41, 3, 97, 61, 181, 8, 502 >,
 	// order 42
 	< 504, 42, 6, 0, 0, 176, 7, -1 >,
 	< 505, 42, 7, 0, 72, 194, 5, 504 >,
 	< 506, 42, 6, 66, 0, 155, 3, 505 >,
 	< 507, 42, 1, 36, 38, 170, 1, 506 >,
 	< 508, 42, 6, 40, 0, 172, 9, 507 >,
 	< 509, 42, 3, 76, 97, 140, 6, 508 >,
 	< 510, 42, 4, 0, 0, 185, 4, 509 >,
 	< 511, 42, 2, 0, 32, 179, 2, 510 >,
 	< 512, 42, 2, 73, 0, 147, 0, 511 >,
 	< 513, 42, 2, 0, 75, 140, 8, 512 >,
 	< 514, 42, 5, 0, 82, 127, 7, 513 >,
 	< 515, 42, 10, 0, 0, 103, 5, 514 >,
 	// order 43
 	< 516, 43, 5, 0, 0, 174, 3, -1 >,
 	< 517, 43, 10, 0, 51, 101, 1, 516 >,
 	< 518, 43, 8, 52, 0, 156, 9, 517 >,
 	< 519, 43, 4, 89, 0, 188, 6, 518 >,
 	< 520, 43, 8, 41, 30, 147, 4, 519 >,
 	< 521, 43, 5, 0, 63, 199, 2, 520 >,
 	< 522, 43, 10, 0, 0, 186, 0, 521 >,
 	< 523, 43, 6, 0, 99, 163, 8, 522 >,
 	< 524, 43, 2, 86, 0, 193, 7, 523 >,
 	< 525, 43, 8, 0, 0, 181, 5, 524 >,
 	< 526, 43, 2, 0, 0, 191, 3, 525 >,
 	< 527, 43, 2, 0, 0, 131, 1, 526 >,
 	// order 44
 	< 528, 44, 4, 0, 0, 153, 9, -1 >,
 	< 529, 44, 1, 89, 0, 179, 6, 528 >,
 	< 530, 44, 8, 53, 0, 193, 4, 529 >,
 	< 531, 44, 7, 57, 95, 183, 2, 530 >,
 	< 532, 44, 2, 0, 0, 138, 0, 531 >,
 	< 533, 44, 2, 0, 51, 156, 8, 532 >,
 	< 534, 44, 1, 43, 0, 123, 7, 533 >,
 	< 535, 44, 1, 80, 0, 107, 5, 534 >,
 	< 536, 44, 10, 30, 0, 199, 3, 535 >,
 	< 537, 44, 3, 87, 0, 156, 1, 536 >,
 	< 538, 44, 6, 62, 0, 160, 9, 537 >,
 	< 539, 44, 2, 0, 93, 136, 6, 538 >,
 	// order 45
 	< 540, 45, 9, 0, 62, 178, 4, -1 >,
 	< 541, 45, 8, 93, 94, 185, 2, 540 >,
 	< 542, 45, 2, 0, 95, 186, 0, 541 >,
 	< 543, 45, 2, 50, 0, 120, 8, 542 >,
 	< 544, 45, 5, 0, 100, 149, 7, 543 >,
 	< 545, 45, 6, 89, 0, 170, 5, 544 >,
 	< 546, 45, 9, 81, 0, 174, 3, 545 >,
 	< 547, 45, 5, 55, 0, 156, 1, 546 >,
 	< 548, 45, 1, 0, 0, 171, 9, 547 >,
 	< 549, 45, 5, 0, 60, 174, 6, 548 >,
 	< 550, 45, 1, 0, 81, 116, 4, 549 >,
 	< 551, 45, 5, 86, 0, 129, 2, 550 >,
 	// order 46
 	< 552, 46, 3, 33, 45, 199, 0, -1 >,
 	< 553, 46, 4, 60, 0, 143, 8, 552 >,
 	< 554, 46, 6, 35, 39, 138, 7, 553 >,
 	< 555, 46, 10, 0, 48, 172, 5, 554 >,
 	< 556, 46, 5, 0, 0, 130, 3, 555 >,
 	< 557, 46, 3, 0, 84, 180, 1, 556 >,
 	< 558, 46, 7, 0, 0, 197, 9, 557 >,
 	< 559, 46, 8, 0, 0, 113, 6, 558 >,
 	< 560, 46, 8, 0, 57, 125, 4, 559 >,
 	< 561, 46, 4, 0, 68, 113, 2, 560 >,
 	< 562, 46, 1, 0, 84, 189, 0, 561 >,
 	< 563, 46, 1, 58, 80, 192, 8, 562 >,
 	// order 47
 	< 564, 47, 8, 0, 76, 139, 7, -1 >,
 	< 565, 47, 9, 65, 0, 187, 5, 564 >,
 	< 566, 47, 2, 0, 51, 153, 3, 565 >,
 	< 567, 47, 6, 0, 0, 180, 1, 566 >,
 	< 568, 47, 6, 0, 97, 154, 9, 567 >,
 	< 569, 47, 7, 91, 0, 103, 6, 568 >,
 	< 570, 47, 5, 0, 0, 162, 4, 569 >,
 	< 571, 47, 3, 86, 82, 186, 2, 570 >,
 	< 572, 47, 6, 52, 0, 126, 0, 571 >,
 	< 573, 47, 9, 0, 0, 147, 8, 572 >,
 	< 574, 47, 4, 0, 0, 123, 7, 573 >,
 	< 575, 47, 2, 0, 0, 106, 5, 574 >,
 	// order 48
 	< 576, 48, 4, 0, 70, 194, 3, -1 >,
 	< 577, 48, 4, 0, 67, 105, 1, 576 >,
 	< 578, 48, 5, 53, 95, 159, 9, 577 >,
 	< 579, 48, 4, 0, 41, 125, 6, 578 >,
 	< 580, 48, 7, 77, 58, 184, 4, 579 >,
 	< 581, 48, 7, 0, 0, 193, 2, 580 >,
 	< 582, 48, 5, 94, 0, 122, 0, 581 >,
 	< 583, 48, 8, 0, 75, 185, 8, 582 >,
 	< 584, 48, 8, 89, 67, 113, 7, 583 >,
 	< 585, 48, 7, 73, 90, 158, 5, 584 >,
 	< 586, 48, 3, 73, 51, 189, 3, 585 >,
 	< 587, 48, 6, 0, 59, 143, 1, 586 >,
 	// order 49
 	< 588, 49, 2, 88, 0, 123, 9, -1 >,
 	< 589, 49, 8, 31, 97, 130, 6, 588 >,
 	< 590, 49, 5, 86, 0, 115, 4, 589 >,
 	< 591, 49, 3, 0, 0, 163, 2, 590 >,
 	< 592, 49, 2, 0, 65, 108, 0, 591 >,
 	< 593, 49, 9, 0, 0, 140, 8, 592 >,
 	< 594, 49, 1, 0, 55, 130, 7, 593 >,
 	< 595, 49, 8, 79, 58, 181, 5, 594 >,
 	< 596, 49, 8, 38, 99, 134, 3, 595 >,
 	< 597, 49, 7, 0, 0, 173, 1, 596 >,
 	< 598, 49, 3, 0, 85, 125, 9, 597 >,
 	< 599, 49, 1, 0, 0, 135, 6, 598 >
 };
